<?xml version = "1.0" encoding="UTF-8" standalone="yes"?>
<CPLEXSolution version="1.2">
 <header
   problemName="IloCplex"
   solutionName="incumbent"
   solutionIndex="-1"
   objectiveValue="-0.4"
   solutionTypeValue="3"
   solutionTypeString="primal"
   solutionStatusValue="101"
   solutionStatusString="integer optimal solution"
   solutionMethodString="mip"
   primalFeasible="1"
   dualFeasible="1"
   MIPNodes="0"
   MIPIterations="0"
   writeLevel="1"/>
 <quality
   epInt="1e-05"
   epRHS="1e-06"
   maxIntInfeas="0"
   maxPrimalInfeas="0"
   maxX="2"
   maxSlack="2.4"/>
 <linearConstraints>
  <constraint name="C1" index="0" slack="0"/>
  <constraint name="C2" index="1" slack="2.4"/>
 </linearConstraints>
 <variables>
  <variable name="X1" index="0" value="1.6"/>
  <variable name="X2" index="1" value="-2"/>
  <variable name="OBJ" index="2" value="0"/>
 </variables>
</CPLEXSolution>
